3 
4  56 
5  16 35 49 
6  04 20 35 50 
7  05 20 35 50 
8  05 20 35 50 
9  05 21 36 51 
10  04 19 34 49 
11  04 19 34 49 
12  04 19 34 49 
13  04 19 34 49 
14  04 21 40 55 
15  10 25 40 55 
16  10 25 40 55 
17  10 22 37 50 
18  06 20 35 50 
19  04 19 34 49 
20  04 17 32 47 
21  02 17 32 47 
22  02 17 32 45 58 
23 
